1
1000
120
497 1
496 1
493 1
490 1
490 1
485 1
484 1
472 1
470 1
462 1
458 1
446 1
446 1
445 1
442 1
436 1
436 1
433 1
427 1
426 1
423 1
422 1
419 1
414 1
410 1
408 1
403 1
402 1
396 1
388 1
387 1
386 1
377 1
375 1
375 1
374 1
373 1
372 1
372 1
364 1
363 1
361 1
357 1
352 1
352 1
349 1
347 1
342 1
339 1
336 1
335 1
334 1
330 1
329 1
328 1
323 1
318 1
315 1
312 1
310 1
308 1
308 1
306 1
306 1
305 1
302 1
302 1
294 1
292 1
290 1
287 1
285 1
280 1
278 1
276 1
276 1
276 1
276 1
275 1
275 1
274 1
274 1
273 1
273 1
272 1
270 1
270 1
270 1
269 1
268 1
268 1
266 1
265 1
263 1
262 1
262 1
262 1
260 1
258 1
258 1
258 1
257 1
256 1
255 1
254 1
254 1
254 1
254 1
253 1
253 1
253 1
252 1
252 1
252 1
252 1
251 1
250 1
250 1
250 1
250 1
